Route #1: 262 423 463 544 584 663 703 903 864 824 825 785 826 866 907 867 828 868 909 869 830 790 629 589 550 471 391
Route #2: 150 270 309 349 469 548 588 587 547 506 505 465 345 305 265 224
Route #3: 553 593 632 672 711 751 871 872 913 873 874 834 835 836 876 917 877 838 878 919 879 840 800 680 561 441 321 281
Route #4: 198 318 358 398 439 559 599 598 637 597 556 596 635 595 514 394 354 314 194
Route #5: 78 81 84 85 5
Route #6: 450 569 609 650 770 810 849 889 848 808 847 887 846 806 765 805 804 844 843 883 842 841 801 642 602 603 563 484
Route #7: 165 204 325 365 405 445 526 567 527 488 409 370 330 291 171
Route #8: 501 582 742 782 821 861 860 899 859 858 818 857 897 856 816 815 814 854 893 853 693 772 812 851 731 691 571 532 492
Route #9: 254 335 375 454 494 534 575 615 576 577 617 618 619 579 580 540 379 339 299 218
Route #10: 56 136 99 102 103 25
Cost: 16074038
